peakDumbCharging = 25900; 
Machine = anon_enum(16); 
machineSpeed = [3700,3700,3700,3700,3700,3700,3700,3700,3700,3700,3700,3700,3700,3700,3700,3700]; 
machineLoad = [3700,3700,3700,3700,3700,3700,3700,3700,3700,3700,3700,3700,3700,3700,3700,3700]; 
Car = anon_enum(24); 
demandCar = [12480,2360,6960,15520,11320,3080,16080,22480,7120,8920,920,5840,7720,13360,3400,6120,5800,2320,5040,5840,8640,3080,4320,31720]; 
arrivalCar = [72,72,71,69,68,68,67,66,64,63,62,60,57,56,54,51,51,51,50,49,47,46,46,31]; 
departureCar = [77,74,74,74,75,70,73,74,69,69,63,63,60,62,56,54,55,53,52,52,51,48,48,63]; 
